Weights = (
	unscheduledOptional: 350,
	continuityOfCare: 1,
	nurseEccessiveWorkload: 10,
	surgeonTransfer: 10,
	openOperatingTheater: 30,
	roomMixedAge: 5,
	patientDelay: 10,
	roomNurseSkill: 10,
);

Gender = {A, B};
ShiftType = {early, late, night};
AgeGroup = {infant, adult, elderly};
NurseId = {n00, n01, n02, n03, n04, n05, n06, n07, n08, n09, n10, n11};
SurgeonId = {s0};
OperatingTheaterId = {t0, t1};
RoomId = {r0, r1, r2, r3};
PatientId = {p00, p01, p02, p03, p04, p05, p06, p07, p08, p09, p10, p11, p12, p13, p14, p15, p16, p17, p18, p19, p20, p21, p22, p23, p24, p25, p26, p27};
OccupantId = {a0, a1, a2};

lastDay = 13;
maxDay = 21;
skillLevels = 3;

nurseData = [
	(
		id: n00,
		skillLevel: 2,
		workingShifts: [
			(day: 0, shift: late, maxLoad: 15), 
			(day: 2, shift: early, maxLoad: 15), 
			(day: 3, shift: early, maxLoad: 15), 
			(day: 4, shift: late, maxLoad: 15), 
			(day: 5, shift: late, maxLoad: 5), 
			(day: 6, shift: night, maxLoad: 15), 
			(day: 8, shift: early, maxLoad: 15), 
			(day: 9, shift: late, maxLoad: 5), 
			(day: 10, shift: late, maxLoad: 15), 
			(day: 11, shift: late, maxLoad: 15), 
			(day: 12, shift: late, maxLoad: 5)
		]
	),
	(
		id: n01,
		skillLevel: 1,
		workingShifts: [
			(day: 0, shift: late, maxLoad: 12), 
			(day: 2, shift: early, maxLoad: 12), 
			(day: 3, shift: early, maxLoad: 12), 
			(day: 4, shift: night, maxLoad: 12), 
			(day: 5, shift: night, maxLoad: 12), 
			(day: 6, shift: night, maxLoad: 12), 
			(day: 8, shift: late, maxLoad: 12), 
			(day: 9, shift: late, maxLoad: 12), 
			(day: 10, shift: night, maxLoad: 12), 
			(day: 11, shift: night, maxLoad: 12), 
			(day: 12, shift: night, maxLoad: 12), 
			(day: 13, shift: night, maxLoad: 12)
		]
	),
	(
		id: n02,
		skillLevel: 0,
		workingShifts: [
			(day: 0, shift: early, maxLoad: 10), 
			(day: 1, shift: early, maxLoad: 10), 
			(day: 2, shift: late, maxLoad: 10), 
			(day: 3, shift: late, maxLoad: 10), 
			(day: 4, shift: late, maxLoad: 10), 
			(day: 5, shift: late, maxLoad: 10), 
			(day: 6, shift: late, maxLoad: 10), 
			(day: 7, shift: late, maxLoad: 10), 
			(day: 9, shift: early, maxLoad: 10), 
			(day: 10, shift: early, maxLoad: 10), 
			(day: 11, shift: early, maxLoad: 10), 
			(day: 13, shift: early, maxLoad: 10)
		]
	),
	(
		id: n03,
		skillLevel: 0,
		workingShifts: [
			(day: 0, shift: night, maxLoad: 10), 
			(day: 2, shift: late, maxLoad: 10), 
			(day: 3, shift: night, maxLoad: 10), 
			(day: 5, shift: early, maxLoad: 10), 
			(day: 6, shift: early, maxLoad: 10), 
			(day: 7, shift: early, maxLoad: 10), 
			(day: 8, shift: night, maxLoad: 10), 
			(day: 10, shift: early, maxLoad: 10), 
			(day: 11, shift: early, maxLoad: 10), 
			(day: 12, shift: early, maxLoad: 10), 
			(day: 13, shift: early, maxLoad: 10)
		]
	),
	(
		id: n04,
		skillLevel: 2,
		workingShifts: [
			(day: 0, shift: night, maxLoad: 15), 
			(day: 1, shift: night, maxLoad: 15), 
			(day: 2, shift: night, maxLoad: 5), 
			(day: 3, shift: night, maxLoad: 15), 
			(day: 5, shift: early, maxLoad: 15), 
			(day: 6, shift: early, maxLoad: 15), 
			(day: 8, shift: late, maxLoad: 15), 
			(day: 9, shift: night, maxLoad: 15), 
			(day: 10, shift: night, maxLoad: 5), 
			(day: 11, shift: night, maxLoad: 15), 
			(day: 13, shift: early, maxLoad: 5)
		]
	),
	(
		id: n05,
		skillLevel: 0,
		workingShifts: [
			(day: 0, shift: early, maxLoad: 10), 
			(day: 1, shift: early, maxLoad: 10), 
			(day: 2, shift: late, maxLoad: 10), 
			(day: 3, shift: late, maxLoad: 10), 
			(day: 4, shift: night, maxLoad: 10), 
			(day: 6, shift: late, maxLoad: 10), 
			(day: 7, shift: night, maxLoad: 10), 
			(day: 8, shift: night, maxLoad: 10), 
			(day: 9, shift: night, maxLoad: 10), 
			(day: 11, shift: early, maxLoad: 10), 
			(day: 12, shift: early, maxLoad: 10), 
			(day: 13, shift: late, maxLoad: 10)
		]
	),
	(
		id: n06,
		skillLevel: 1,
		workingShifts: [
			(day: 1, shift: early, maxLoad: 12), 
			(day: 2, shift: night, maxLoad: 12), 
			(day: 4, shift: early, maxLoad: 12), 
			(day: 5, shift: late, maxLoad: 12), 
			(day: 7, shift: early, maxLoad: 12), 
			(day: 9, shift: early, maxLoad: 12), 
			(day: 10, shift: early, maxLoad: 12), 
			(day: 11, shift: late, maxLoad: 12), 
			(day: 12, shift: late, maxLoad: 12), 
			(day: 13, shift: night, maxLoad: 12)
		]
	),
	(
		id: n07,
		skillLevel: 0,
		workingShifts: [
			(day: 0, shift: early, maxLoad: 10), 
			(day: 1, shift: late, maxLoad: 10), 
			(day: 2, shift: night, maxLoad: 10), 
			(day: 4, shift: early, maxLoad: 10), 
			(day: 6, shift: late, maxLoad: 10), 
			(day: 7, shift: late, maxLoad: 10), 
			(day: 9, shift: early, maxLoad: 10), 
			(day: 10, shift: late, maxLoad: 10), 
			(day: 12, shift: early, maxLoad: 10), 
			(day: 13, shift: late, maxLoad: 10)
		]
	),
	(
		id: n08,
		skillLevel: 2,
		workingShifts: [
			(day: 1, shift: night, maxLoad: 15), 
			(day: 3, shift: late, maxLoad: 15), 
			(day: 5, shift: night, maxLoad: 15), 
			(day: 7, shift: early, maxLoad: 5), 
			(day: 8, shift: early, maxLoad: 5), 
			(day: 9, shift: late, maxLoad: 15), 
			(day: 10, shift: night, maxLoad: 15), 
			(day: 12, shift: late, maxLoad: 15)
		]
	),
	(
		id: n09,
		skillLevel: 2,
		workingShifts: [
			(day: 1, shift: late, maxLoad: 15), 
			(day: 4, shift: early, maxLoad: 15), 
			(day: 7, shift: late, maxLoad: 15), 
			(day: 12, shift: night, maxLoad: 15)
		]
	),
	(
		id: n10,
		skillLevel: 2,
		workingShifts: [
			(day: 8, shift: early, maxLoad: 15), 
			(day: 13, shift: late, maxLoad: 15)
		]
	),
	(
		id: n11,
		skillLevel: 1,
		workingShifts: [
			(day: 7, shift: night, maxLoad: 12)
		]
	)
];

surgeonData = [
	(id: s0, maxSurgeryTime: [0:0, 0, 600, 480, 480, 0, 0, 480, 600, 480, 600, 0, 360, 0])
];

patientData = [
	(
		id: p00, 
		gender: A, 
		ageGroup: elderly, 
		lengthOfStay: 7, 
		workloadProduced: [0:2, 2, 1, 2, 2, 2, 3, 2, 2, 2, 2, 2, 3, 2, 2, 2, 3, 2, 1, 1, 1],
		skillLevelRequired: [0:2, 1, 1, 2, 0, 1, 2, 2, 0, 1, 1, 1, 2, 2, 0, 1, 1, 1, 2, 2, 1],
		mandatory: false, 
		surgeryReleaseDay: 4, 
		surgeryDueDay: 0, 
		surgeryDuration: 240, 
		surgeonId: s0, 
		incompatibleRooms: [r1],
	),
	(
		id: p01, 
		gender: B, 
		ageGroup: elderly, 
		lengthOfStay: 8, 
		workloadProduced: [0:2, 2, 2, 2, 2, 2, 2, 3, 1, 2, 2, 1, 2, 3, 2, 2, 3, 2, 2, 3, 2, 2, 1, 1],
		skillLevelRequired: [0:1, 1, 1, 2, 2, 1, 0, 1, 0, 1, 1, 0, 2, 0, 0, 0, 2, 0, 2, 1, 0, 1, 1, 0],
		mandatory: false, 
		surgeryReleaseDay: 2, 
		surgeryDueDay: 0, 
		surgeryDuration: 300, 
		surgeonId: s0, 
		incompatibleRooms: [r0],
	),
	(
		id: p02, 
		gender: B, 
		ageGroup: elderly, 
		lengthOfStay: 7, 
		workloadProduced: [0:2, 3, 1, 2, 3, 2, 2, 2, 1, 2, 3, 2, 2, 3, 2, 3, 3, 1, 2, 1, 1],
		skillLevelRequired: [0:2, 0, 0, 2, 2, 0, 1, 0, 0, 0, 0, 1, 1, 2, 0, 2, 0, 0, 2, 1, 1],
		mandatory: false, 
		surgeryReleaseDay: 2, 
		surgeryDueDay: 0, 
		surgeryDuration: 300, 
		surgeonId: s0, 
		incompatibleRooms: [r1],
	),
	(
		id: p03, 
		gender: A, 
		ageGroup: adult, 
		lengthOfStay: 4, 
		workloadProduced: [0:3, 2, 2, 2, 3, 2, 1, 1, 1, 2, 1, 1],
		skillLevelRequired: [0:0, 0, 1, 0, 0, 0, 0, 0, 0, 2, 0, 0],
		mandatory: false, 
		surgeryReleaseDay: 2, 
		surgeryDueDay: 0, 
		surgeryDuration: 180, 
		surgeonId: s0, 
		incompatibleRooms: [],
	),
	(
		id: p04, 
		gender: A, 
		ageGroup: elderly, 
		lengthOfStay: 6, 
		workloadProduced: [0:2, 2, 1, 2, 3, 1, 2, 2, 2, 2, 3, 2, 2, 2, 2, 1, 1, 2],
		skillLevelRequired: [0:0, 2, 1, 0, 2, 0, 1, 2, 0, 1, 1, 0, 1, 1, 0, 0, 0, 1],
		mandatory: false, 
		surgeryReleaseDay: 2, 
		surgeryDueDay: 0, 
		surgeryDuration: 300, 
		surgeonId: s0, 
		incompatibleRooms: [r0],
	),
	(
		id: p05, 
		gender: B, 
		ageGroup: elderly, 
		lengthOfStay: 7, 
		workloadProduced: [0:2, 2, 2, 2, 3, 1, 2, 3, 2, 3, 3, 2, 3, 3, 2, 2, 3, 1, 2, 1, 2],
		skillLevelRequired: [0:1, 1, 1, 1, 2, 1, 0, 2, 1, 1, 1, 0, 1, 1, 0, 1, 2, 0, 1, 1, 1],
		mandatory: false, 
		surgeryReleaseDay: 2, 
		surgeryDueDay: 0, 
		surgeryDuration: 300, 
		surgeonId: s0, 
		incompatibleRooms: [],
	),
	(
		id: p06, 
		gender: B, 
		ageGroup: adult, 
		lengthOfStay: 6, 
		workloadProduced: [0:2, 3, 2, 2, 3, 1, 2, 3, 1, 2, 2, 2, 2, 3, 2, 1, 1, 2],
		skillLevelRequired: [0:2, 1, 1, 1, 2, 1, 2, 0, 1, 2, 1, 1, 1, 2, 0, 1, 2, 0],
		mandatory: false, 
		surgeryReleaseDay: 2, 
		surgeryDueDay: 0, 
		surgeryDuration: 300, 
		surgeonId: s0, 
		incompatibleRooms: [],
	),
	(
		id: p07, 
		gender: A, 
		ageGroup: elderly, 
		lengthOfStay: 4, 
		workloadProduced: [0:2, 2, 2, 2, 2, 1, 3, 2, 1, 2, 3, 2],
		skillLevelRequired: [0:2, 1, 0, 1, 0, 0, 0, 2, 1, 2, 1, 0],
		mandatory: false, 
		surgeryReleaseDay: 8, 
		surgeryDueDay: 0, 
		surgeryDuration: 240, 
		surgeonId: s0, 
		incompatibleRooms: [],
	),
	(
		id: p08, 
		gender: B, 
		ageGroup: elderly, 
		lengthOfStay: 5, 
		workloadProduced: [0:2, 2, 1, 3, 2, 1, 2, 2, 1, 3, 3, 1, 3, 2, 2],
		skillLevelRequired: [0:2, 2, 0, 1, 1, 0, 1, 2, 0, 0, 2, 0, 1, 2, 0],
		mandatory: false, 
		surgeryReleaseDay: 3, 
		surgeryDueDay: 0, 
		surgeryDuration: 300, 
		surgeonId: s0, 
		incompatibleRooms: [r1],
	),
	(
		id: p09, 
		gender: B, 
		ageGroup: elderly, 
		lengthOfStay: 4, 
		workloadProduced: [0:2, 2, 1, 2, 2, 2, 2, 2, 2, 3, 3, 2],
		skillLevelRequired: [0:1, 0, 0, 2, 2, 1, 1, 0, 0, 0, 1, 0],
		mandatory: false, 
		surgeryReleaseDay: 2, 
		surgeryDueDay: 0, 
		surgeryDuration: 240, 
		surgeonId: s0, 
		incompatibleRooms: [],
	),
	(
		id: p10, 
		gender: A, 
		ageGroup: elderly, 
		lengthOfStay: 3, 
		workloadProduced: [0:2, 3, 1, 2, 3, 2, 2, 3, 1],
		skillLevelRequired: [0:0, 1, 0, 1, 0, 1, 2, 0, 0],
		mandatory: false, 
		surgeryReleaseDay: 2, 
		surgeryDueDay: 0, 
		surgeryDuration: 120, 
		surgeonId: s0, 
		incompatibleRooms: [],
	),
	(
		id: p11, 
		gender: B, 
		ageGroup: elderly, 
		lengthOfStay: 6, 
		workloadProduced: [0:2, 2, 1, 3, 2, 1, 2, 2, 2, 2, 2, 2, 3, 2, 1, 3, 1, 1],
		skillLevelRequired: [0:0, 0, 0, 0, 2, 0, 0, 0, 1, 0, 1, 1, 0, 2, 0, 2, 1, 0],
		mandatory: false, 
		surgeryReleaseDay: 2, 
		surgeryDueDay: 0, 
		surgeryDuration: 180, 
		surgeonId: s0, 
		incompatibleRooms: [],
	),
	(
		id: p12, 
		gender: B, 
		ageGroup: elderly, 
		lengthOfStay: 6, 
		workloadProduced: [0:3, 2, 1, 3, 3, 1, 3, 3, 1, 3, 2, 1, 3, 1, 1, 3, 1, 1],
		skillLevelRequired: [0:1, 0, 1, 0, 2, 0, 0, 2, 0, 1, 2, 0, 1, 1, 0, 1, 0, 0],
		mandatory: false, 
		surgeryReleaseDay: 7, 
		surgeryDueDay: 0, 
		surgeryDuration: 300, 
		surgeonId: s0, 
		incompatibleRooms: [],
	),
	(
		id: p13, 
		gender: A, 
		ageGroup: elderly, 
		lengthOfStay: 7, 
		workloadProduced: [0:2, 2, 1, 2, 3, 2, 3, 3, 1, 3, 2, 1, 3, 2, 1, 3, 2, 1, 1, 2, 1],
		skillLevelRequired: [0:0, 2, 0, 0, 0, 0, 1, 2, 1, 2, 2, 0, 0, 2, 0, 0, 0, 1, 1, 0, 1],
		mandatory: false, 
		surgeryReleaseDay: 3, 
		surgeryDueDay: 0, 
		surgeryDuration: 300, 
		surgeonId: s0, 
		incompatibleRooms: [],
	),
	(
		id: p14, 
		gender: A, 
		ageGroup: elderly, 
		lengthOfStay: 4, 
		workloadProduced: [0:3, 2, 1, 2, 3, 2, 2, 3, 1, 1, 2, 2],
		skillLevelRequired: [0:2, 0, 1, 1, 0, 0, 2, 0, 1, 1, 0, 0],
		mandatory: false, 
		surgeryReleaseDay: 3, 
		surgeryDueDay: 0, 
		surgeryDuration: 120, 
		surgeonId: s0, 
		incompatibleRooms: [r3],
	),
	(
		id: p15, 
		gender: A, 
		ageGroup: elderly, 
		lengthOfStay: 4, 
		workloadProduced: [0:3, 2, 2, 2, 2, 2, 3, 2, 1, 3, 3, 2],
		skillLevelRequired: [0:0, 1, 1, 1, 0, 0, 0, 0, 0, 2, 2, 0],
		mandatory: false, 
		surgeryReleaseDay: 2, 
		surgeryDueDay: 0, 
		surgeryDuration: 180, 
		surgeonId: s0, 
		incompatibleRooms: [],
	),
	(
		id: p16, 
		gender: A, 
		ageGroup: elderly, 
		lengthOfStay: 6, 
		workloadProduced: [0:2, 2, 2, 2, 2, 2, 2, 3, 1, 3, 2, 1, 2, 2, 2, 1, 3, 2],
		skillLevelRequired: [0:2, 0, 0, 1, 1, 0, 1, 2, 0, 2, 0, 0, 0, 2, 0, 1, 0, 0],
		mandatory: false, 
		surgeryReleaseDay: 2, 
		surgeryDueDay: 0, 
		surgeryDuration: 240, 
		surgeonId: s0, 
		incompatibleRooms: [r2],
	),
	(
		id: p17, 
		gender: B, 
		ageGroup: elderly, 
		lengthOfStay: 4, 
		workloadProduced: [0:2, 2, 1, 2, 2, 1, 3, 2, 2, 1, 3, 1],
		skillLevelRequired: [0:1, 1, 1, 2, 2, 0, 2, 1, 0, 1, 0, 0],
		mandatory: false, 
		surgeryReleaseDay: 2, 
		surgeryDueDay: 0, 
		surgeryDuration: 120, 
		surgeonId: s0, 
		incompatibleRooms: [],
	),
	(
		id: p18, 
		gender: B, 
		ageGroup: elderly, 
		lengthOfStay: 7, 
		workloadProduced: [0:2, 3, 2, 2, 2, 1, 2, 2, 1, 3, 3, 1, 2, 2, 1, 2, 2, 1, 1, 3, 2],
		skillLevelRequired: [0:0, 0, 0, 1, 2, 1, 0, 1, 1, 2, 2, 0, 1, 2, 1, 1, 2, 0, 0, 1, 0],
		mandatory: false, 
		surgeryReleaseDay: 10, 
		surgeryDueDay: 0, 
		surgeryDuration: 120, 
		surgeonId: s0, 
		incompatibleRooms: [],
	),
	(
		id: p19, 
		gender: B, 
		ageGroup: elderly, 
		lengthOfStay: 3, 
		workloadProduced: [0:3, 2, 1, 3, 1, 2, 1, 2, 2],
		skillLevelRequired: [0:0, 0, 0, 1, 1, 0, 2, 2, 1],
		mandatory: false, 
		surgeryReleaseDay: 2, 
		surgeryDueDay: 0, 
		surgeryDuration: 180, 
		surgeonId: s0, 
		incompatibleRooms: [],
	),
	(
		id: p20, 
		gender: A, 
		ageGroup: elderly, 
		lengthOfStay: 6, 
		workloadProduced: [0:2, 2, 2, 2, 2, 1, 3, 2, 2, 1, 3, 1, 1, 1, 1, 1, 1, 2],
		skillLevelRequired: [0:2, 0, 0, 0, 1, 1, 0, 2, 0, 0, 0, 0, 0, 1, 0, 0, 0, 0],
		mandatory: false, 
		surgeryReleaseDay: 2, 
		surgeryDueDay: 0, 
		surgeryDuration: 300, 
		surgeonId: s0, 
		incompatibleRooms: [],
	),
	(
		id: p21, 
		gender: A, 
		ageGroup: adult, 
		lengthOfStay: 6, 
		workloadProduced: [0:3, 2, 1, 3, 2, 1, 2, 2, 2, 2, 2, 2, 2, 3, 2, 3, 1, 2],
		skillLevelRequired: [0:1, 0, 1, 0, 0, 1, 0, 1, 0, 2, 1, 0, 0, 0, 0, 0, 2, 0],
		mandatory: false, 
		surgeryReleaseDay: 4, 
		surgeryDueDay: 0, 
		surgeryDuration: 240, 
		surgeonId: s0, 
		incompatibleRooms: [],
	),
	(
		id: p22, 
		gender: B, 
		ageGroup: elderly, 
		lengthOfStay: 3, 
		workloadProduced: [0:3, 3, 2, 2, 2, 1, 3, 3, 2],
		skillLevelRequired: [0:2, 0, 0, 0, 1, 1, 1, 2, 1],
		mandatory: false, 
		surgeryReleaseDay: 7, 
		surgeryDueDay: 0, 
		surgeryDuration: 180, 
		surgeonId: s0, 
		incompatibleRooms: [],
	),
	(
		id: p23, 
		gender: B, 
		ageGroup: elderly, 
		lengthOfStay: 6, 
		workloadProduced: [0:2, 2, 2, 2, 3, 1, 2, 3, 1, 2, 2, 1, 3, 2, 2, 3, 3, 2],
		skillLevelRequired: [0:1, 0, 0, 0, 0, 0, 0, 2, 0, 2, 1, 1, 2, 0, 1, 1, 2, 0],
		mandatory: false, 
		surgeryReleaseDay: 7, 
		surgeryDueDay: 0, 
		surgeryDuration: 120, 
		surgeonId: s0, 
		incompatibleRooms: [],
	),
	(
		id: p24, 
		gender: A, 
		ageGroup: elderly, 
		lengthOfStay: 5, 
		workloadProduced: [0:2, 2, 2, 2, 3, 2, 2, 2, 1, 2, 2, 2, 2, 1, 2],
		skillLevelRequired: [0:0, 1, 0, 0, 1, 0, 0, 0, 0, 2, 0, 0, 1, 0, 0],
		mandatory: false, 
		surgeryReleaseDay: 7, 
		surgeryDueDay: 0, 
		surgeryDuration: 180, 
		surgeonId: s0, 
		incompatibleRooms: [],
	),
	(
		id: p25, 
		gender: A, 
		ageGroup: elderly, 
		lengthOfStay: 5, 
		workloadProduced: [0:3, 3, 1, 3, 3, 2, 2, 3, 2, 3, 2, 2, 3, 1, 1],
		skillLevelRequired: [0:1, 0, 0, 2, 1, 0, 1, 1, 0, 0, 2, 0, 1, 1, 1],
		mandatory: false, 
		surgeryReleaseDay: 2, 
		surgeryDueDay: 0, 
		surgeryDuration: 300, 
		surgeonId: s0, 
		incompatibleRooms: [],
	),
	(
		id: p26, 
		gender: B, 
		ageGroup: elderly, 
		lengthOfStay: 5, 
		workloadProduced: [0:3, 2, 2, 3, 3, 1, 2, 2, 1, 3, 3, 1, 3, 2, 1],
		skillLevelRequired: [0:1, 0, 0, 0, 2, 0, 1, 2, 0, 1, 2, 1, 2, 1, 0],
		mandatory: false, 
		surgeryReleaseDay: 3, 
		surgeryDueDay: 0, 
		surgeryDuration: 180, 
		surgeonId: s0, 
		incompatibleRooms: [],
	),
	(
		id: p27, 
		gender: B, 
		ageGroup: elderly, 
		lengthOfStay: 4, 
		workloadProduced: [0:3, 2, 1, 2, 3, 2, 3, 1, 1, 1, 1, 2],
		skillLevelRequired: [0:2, 1, 0, 2, 2, 0, 1, 2, 0, 1, 0, 0],
		mandatory: false, 
		surgeryReleaseDay: 3, 
		surgeryDueDay: 0, 
		surgeryDuration: 240, 
		surgeonId: s0, 
		incompatibleRooms: [],
	)
];

occupantData = [
	(
		id: a0, 
		gender: B, 
		ageGroup: adult, 
		lengthOfStay: 1, 
		workloadProduced: [0:1, 1, 1],
		skillLevelRequired: [0:1, 2, 0],
		assignedToRoom: r3, 
	),
	(
		id: a1, 
		gender: B, 
		ageGroup: elderly, 
		lengthOfStay: 2, 
		workloadProduced: [0:1, 1, 1, 1, 3, 1],
		skillLevelRequired: [0:2, 2, 0, 1, 2, 0],
		assignedToRoom: r0, 
	),
	(
		id: a2, 
		gender: B, 
		ageGroup: elderly, 
		lengthOfStay: 2, 
		workloadProduced: [0:2, 2, 1, 3, 2, 1],
		skillLevelRequired: [0:0, 0, 1, 1, 0, 0],
		assignedToRoom: r0, 
	)
];

operatingTheaterData = [
	(id: t0, availability: [0:480, 600, 600, 600, 720, 0, 0, 0, 720, 480, 0, 720, 0, 600]),
	(id: t1, availability: [0:480, 720, 600, 600, 720, 480, 480, 600, 600, 720, 600, 600, 600, 480])
];

roomData = [
	(id: r0, capacity: 3, availableCapacity: [0:1, 1, 3, 3, 3, 3, 3, 3, 3, 3, 3, 3, 3, 3]),
	(id: r1, capacity: 2, availableCapacity: [0:2, 2, 2, 2, 2, 2, 2, 2, 2, 2, 2, 2, 2, 2]),
	(id: r2, capacity: 2, availableCapacity: [0:2, 2, 2, 2, 2, 2, 2, 2, 2, 2, 2, 2, 2, 2]),
	(id: r3, capacity: 2, availableCapacity: [0:1, 2, 2, 2, 2, 2, 2, 2, 2, 2, 2, 2, 2, 2])
];

